1,18224,1996,46792,9212,1236,35575,4467,1914,38925,12062,30744,39797,28758,49174,39092,5727,46340,12096,23053,25118,39146,44760,40817,12010,15297,18019,5092,19087,11706,48721,45944,31280,7992,21442,25186,45803,5509,38933,13774,48841,23967,29753,50023,43495,4598,45192,49346,25796,15750,15491,48826,47911,38920,48302,41705,42912,44747,10064,32110,45767,25276,26706,44400,5719,37634,28536,47321,18264,36983,38746,19567,17600,14825,33257,45400,36663,44125,8630,49679,49108,
2,4598,1996,5092,4598,1236,4598,4467,1914,2936,10179,620,2552,2053,3960,4261,2913,2921,8578,1483,2481,2684,1807,2655,1163,4095,1883,2041,2755,2746,5247,3035,34,810,2377,2076,16715,940,7393,4119,416,621,5282,5417,1264,11178,2061,2892,2020,1413,2689,491,13197,774,3671,1284,14226,1539,5356,462,2942,2574,941,884,1701,1779,3442,2377,2330,1064,13327,3565,1013,1483,33196,3589,2298,3570,8415,4860,33446,
3,34,34,34,416,416,462,416,416,34,34,592,34,1191,1615,34,2315,2745,34,360,2909,1523,582,985,1224,943,1110,2750,1184,1686,941,1553,34,2023,2745,2395,1988,643,643,643,1832,34,34,1828,1206,1307,1957,1236,34,308,1988,416,1132,34,1230,810,778,962,2014,34,626,544,643,1593,1988,795,1957,462,920,2480,34,34,34,10967,24097,3295,31322,34110,7177,5912,30315,
4,34,34,34,34,34,34,34,34,34,34,34,34,34,34,34,34,34,34,34,34,34,34,34,34,34,34,34,34,34,34,34,34,34,34,34,34,34,34,15054,34,34,34,34,34,34,34,34,34,34,34,34,34,34,34,34,34,34,34,34,34,34,34,34,34,34,34,34,34,34,34,34,34,56223,56819,37835,22401,41071,34,29493,33194,
5,34,34,34,34,34,34,34,34,34,34,34,34,34,34,34,3289,34,34,34,34,34,34,34,34,34,34,34,34,34,34,34,34,34,34,34,34,34,34,34,34,34,8729,34,34,34,34,34,34,34,34,34,34,34,34,34,34,34,34,34,18008,34,34,34,34,34,34,34,34,34,34,34,34,52107,8430,34,33101,47151,34,1562,34,
6,34,34,34,34,34,34,34,34,34,34,8286,34,34,11657,34,34,34,34,34,34,34,34,34,34,34,34,34,34,34,34,34,34,34,34,34,34,34,34,34,34,34,34,34,34,34,34,34,34,34,34,34,34,34,34,34,34,34,11657,34,34,34,34,34,34,34,34,34,34,34,34,34,34,49129,22831,4141,55748,21517,45247,25678,47019,
7,34,34,34,34,34,34,34,34,34,34,34,34,34,34,34,34,34,34,34,34,34,34,34,34,34,34,34,34,34,34,34,34,34,34,34,34,34,34,34,34,34,34,34,34,34,34,34,34,34,34,34,34,34,34,34,34,34,34,34,34,34,34,34,34,34,34,34,34,34,34,34,34,34,13721,32599,58779,30380,3001,15101,30264,
8,34,34,34,34,34,34,34,34,34,34,34,34,34,34,34,34,34,34,34,34,6446,1499,34,34,34,34,34,34,34,34,34,34,34,34,34,34,34,34,34,34,34,34,34,34,34,34,34,34,34,34,34,34,34,34,34,34,34,34,6446,34,34,34,34,34,34,34,34,34,34,34,34,34,34,11938,31507,17132,34,34,9855,34,
9,34,34,34,34,34,34,34,34,34,34,34,34,34,34,34,34,34,34,34,34,34,34,34,34,34,34,34,34,34,34,34,34,34,34,34,34,34,34,34,34,34,34,34,34,34,34,34,34,34,34,34,34,34,34,34,34,34,34,34,34,34,34,34,34,34,34,34,34,34,34,34,34,19872,2652,34,41196,22695,11586,30762,28095,
10,34,34,34,34,34,34,34,34,34,34,34,34,34,34,34,34,34,34,34,34,34,34,34,34,34,34,34,34,34,34,34,34,34,34,34,34,34,34,34,34,34,34,34,34,34,34,34,34,34,34,34,34,34,34,34,34,34,34,34,34,34,34,34,34,34,34,34,34,34,34,34,34,47738,34,48004,34,52020,34,30900,34,
11,34,34,34,34,34,34,34,34,34,34,34,34,34,34,34,34,14453,34,34,34,34,34,34,34,34,34,34,34,34,34,34,34,34,34,34,3004,34,34,34,34,34,34,34,34,34,34,34,34,34,34,34,34,34,33319,34,34,34,34,34,34,34,34,14453,34,34,34,34,3004,34,34,34,34,35038,38696,51589,37378,40181,2732,54606,34,
12,34,34,34,34,34,34,34,34,34,34,34,34,34,34,34,34,34,34,34,34,34,34,34,34,34,34,34,34,34,34,34,34,34,34,34,34,34,34,34,34,34,34,34,34,34,34,34,34,34,34,34,34,34,34,34,34,34,34,34,34,34,34,34,34,34,34,34,34,34,34,34,34,30875,34,34,20948,1062,46150,11257,23146,
13,34,34,34,34,34,34,34,34,34,34,34,34,34,34,34,34,34,34,34,34,34,34,34,34,34,34,34,34,34,34,7996,34,34,34,34,34,34,34,34,34,34,34,34,34,34,34,34,34,34,34,34,34,34,34,34,34,34,34,34,34,34,34,34,34,34,12161,34,34,34,34,34,34,49339,45208,35119,53653,42663,21173,2776,17294,
14,34,34,34,34,34,34,34,34,34,34,34,34,34,34,34,34,34,19074,34,34,34,34,34,34,34,34,34,34,34,34,34,34,34,34,34,34,34,34,34,34,34,34,34,34,34,34,34,34,34,34,34,34,34,34,34,34,34,34,34,34,34,34,34,34,34,34,34,34,34,34,34,34,44770,40495,31315,4665,9112,7169,34,34,
15,34,34,34,34,34,34,34,34,34,34,34,34,34,34,34,34,34,34,34,34,34,34,34,34,34,34,34,34,34,34,34,34,34,34,34,34,34,34,34,34,34,34,34,34,34,34,34,34,34,34,34,34,34,34,34,34,34,34,34,34,34,34,34,34,34,34,34,34,34,34,34,34,42101,8220,20590,48986,30494,34,43162,12150,
16,34,34,34,34,34,34,34,34,34,34,34,34,34,34,34,34,34,34,34,34,34,34,34,34,34,34,34,34,34,34,34,34,34,34,34,34,34,34,34,34,34,2298,34,34,34,34,34,34,34,34,34,34,34,34,34,34,34,34,34,34,34,34,34,34,34,34,34,34,34,34,34,34,20940,34,42953,60022,34,34,34,56650,
17,34,34,34,34,34,34,34,34,34,34,34,34,34,34,34,34,34,17768,34,34,34,17768,34,34,34,34,34,34,34,34,34,34,34,34,13898,34,34,34,34,34,34,34,34,34,34,34,13898,34,34,34,17768,34,34,34,34,34,34,34,34,34,34,34,34,34,34,34,34,34,34,34,34,34,25488,48221,20061,6619,8649,34,11227,22627,
18,34,34,34,34,34,34,34,34,34,34,34,16684,34,34,16684,16684,34,34,34,34,34,34,34,34,34,34,34,34,16684,34,34,34,34,34,34,16684,34,34,34,34,34,34,34,34,34,34,34,34,34,34,34,34,34,34,34,34,34,34,34,34,34,34,34,34,34,34,34,34,34,34,34,34,34,34,50936,11108,9273,38647,58469,16162,
19,34,34,34,34,34,34,34,34,34,34,34,34,34,34,34,34,34,34,34,34,34,34,34,34,34,34,34,34,34,34,34,34,34,34,34,34,34,34,34,34,8362,34,34,8362,34,34,34,34,8362,34,34,34,34,34,34,34,13601,34,34,34,34,34,8362,34,34,34,34,34,34,34,34,34,34,47293,34,6529,22901,39934,16938,34,
20,34,34,34,34,34,34,34,34,34,34,34,34,34,34,34,34,34,34,34,34,34,34,34,34,34,34,34,34,34,34,34,34,34,34,34,34,34,34,34,34,34,34,34,34,34,34,34,34,34,34,34,34,34,34,34,34,34,34,34,34,34,34,34,34,34,34,34,34,34,34,34,34,46847,34,35808,34,34,34,34,12003,
21,34,34,34,34,34,34,34,34,34,34,34,34,34,34,34,34,34,34,34,34,34,34,34,34,34,34,34,34,34,34,34,34,34,34,34,34,34,34,34,34,34,34,34,34,34,34,34,34,34,34,34,34,34,34,34,34,34,34,34,34,34,34,34,34,34,34,34,34,34,34,34,34,34,34,34,45790,34,39002,13550,34,
22,34,34,34,34,34,34,34,34,34,34,34,34,34,34,34,34,34,34,34,34,34,34,34,34,34,34,34,14189,34,34,34,34,34,34,34,34,34,34,34,34,34,34,34,34,34,34,34,34,34,34,34,34,34,34,34,34,34,34,34,34,34,34,34,34,34,34,34,34,34,34,34,34,40979,34,34,32652,34,10944,27653,34,
23,34,34,34,34,34,34,34,34,34,34,34,34,34,34,34,34,34,34,34,34,34,34,34,34,34,34,34,34,34,34,34,34,34,34,34,34,34,34,34,34,34,34,34,34,34,34,34,34,34,34,34,34,34,34,34,34,34,34,34,34,34,34,34,34,34,34,34,34,34,34,34,34,59456,20796,48344,34,3861,43374,34,41887,
24,34,34,34,34,34,34,34,34,34,34,34,34,34,34,34,34,34,34,34,34,34,34,34,34,34,34,34,34,34,34,34,34,34,34,34,34,34,34,34,34,34,34,34,34,34,34,34,34,34,34,34,34,34,34,34,34,34,34,34,34,34,34,34,34,34,34,34,34,34,34,34,34,43468,34,27089,34,34,11328,17101,55294,
25,34,34,34,34,34,34,34,34,10172,34,34,34,34,34,34,34,34,34,34,34,34,34,34,34,34,34,34,34,34,34,34,34,34,34,34,34,34,34,34,34,34,34,34,34,34,34,34,34,34,34,34,34,34,34,34,34,34,34,34,34,34,34,34,34,34,34,34,34,34,34,34,34,47897,34,54430,41836,12309,34,2817,33533,
26,34,34,34,34,34,34,34,34,34,34,34,34,34,34,34,34,34,34,34,34,34,34,34,34,34,34,34,34,34,34,34,34,34,34,34,4458,34,34,34,34,34,34,34,34,34,34,34,34,34,34,34,34,34,34,34,34,34,34,34,34,34,34,34,34,34,34,34,34,4458,34,34,34,34,17148,51581,24761,25178,34,54050,51818,
27,34,34,34,34,34,34,34,34,34,34,34,34,34,34,6250,34,34,34,34,34,34,34,34,34,34,34,34,34,34,34,34,34,34,34,34,34,34,34,34,34,34,34,34,34,34,34,34,34,34,6250,34,34,34,34,34,34,34,34,34,34,34,34,6250,34,34,34,34,34,34,34,34,34,58774,39088,21417,34,34,34,34,40372,
28,34,34,34,34,34,34,34,34,25653,34,25653,34,34,34,34,34,34,34,34,34,34,34,34,34,34,34,34,34,34,34,34,34,34,34,34,25653,34,34,34,19474,19474,34,34,34,34,34,34,34,34,34,34,34,34,34,34,34,34,34,34,34,34,34,34,34,34,25653,34,34,34,34,34,34,36311,37368,32658,29837,27695,34,42269,39781,
29,34,34,34,34,34,34,34,34,34,34,34,34,7838,34,34,34,34,10516,34,34,34,34,34,34,34,34,34,34,34,34,34,3362,34,34,34,34,34,34,34,34,34,34,985,34,34,34,34,34,34,34,34,34,34,34,34,34,34,34,34,34,34,34,34,34,34,34,34,34,34,34,34,34,34,44700,34,25879,31184,34,20138,34,
30,34,34,34,34,34,34,34,34,34,34,34,34,34,34,34,34,34,34,34,34,34,34,34,34,34,34,34,34,8324,34,34,34,8324,34,34,34,34,34,34,34,34,34,34,34,34,34,34,34,34,34,34,34,34,34,34,34,34,34,34,34,34,34,34,34,34,34,34,34,34,34,34,34,55739,35811,48477,1512,41235,34,43913,34,
31,34,34,34,34,34,34,34,34,34,34,34,34,34,34,34,34,34,34,34,34,34,34,34,34,34,34,34,34,34,34,34,34,34,34,34,34,34,34,34,34,34,34,34,34,34,34,34,34,34,1512,34,34,34,34,34,34,34,34,34,34,34,34,34,34,34,34,34,34,34,26543,34,34,34,34,37432,34,38453,20343,18598,34,
32,34,34,34,34,34,34,34,34,34,34,34,34,10907,34,34,34,34,34,34,34,34,34,34,34,34,34,34,34,34,34,34,34,34,34,34,34,34,34,34,34,34,34,34,34,34,34,34,34,34,34,34,34,34,34,34,34,34,34,34,34,34,34,10907,34,34,34,34,34,34,34,34,34,34,34,34,34,59556,34,24599,34,
33,34,34,34,34,34,34,34,34,34,34,34,34,34,34,34,34,34,34,34,34,34,34,34,34,34,34,34,34,34,34,34,34,34,34,34,34,34,34,34,34,34,34,34,34,34,34,34,34,34,34,34,34,34,34,34,34,34,34,34,34,34,34,34,34,34,34,34,34,34,34,34,34,34,50587,37445,39173,37420,34,22317,34,
34,34,34,34,34,34,34,34,34,34,34,34,34,34,34,34,858,34,34,34,34,34,34,34,34,34,34,34,34,34,34,34,34,34,34,34,34,34,34,34,34,34,34,34,34,34,34,34,34,34,34,34,34,34,34,34,34,34,34,34,34,34,34,34,34,34,34,34,34,34,34,34,34,40309,34,4613,46347,7419,34,37679,4191,
35,34,34,34,34,34,34,34,34,34,34,34,34,34,34,34,34,34,34,34,34,34,34,34,34,34,34,34,34,34,34,34,34,34,34,34,34,34,34,34,34,34,34,34,34,34,34,34,34,34,34,34,34,34,34,34,34,34,34,34,34,34,34,34,34,34,34,34,34,34,34,34,34,17278,23431,34,54076,34,22964,46114,18212,
36,34,34,34,34,34,34,34,34,34,34,34,34,34,34,34,34,34,34,34,11449,34,34,34,34,34,34,34,34,34,34,34,34,34,34,34,34,34,34,34,34,34,34,34,34,34,34,34,34,34,34,34,34,34,34,34,34,11449,34,34,34,34,34,34,34,34,34,34,34,34,34,34,34,3692,11652,54272,34,28796,34,34,34,
37,34,34,34,34,34,34,34,34,34,34,34,34,34,34,34,34,34,34,34,34,34,34,34,34,34,34,34,34,34,34,34,34,34,34,34,34,34,34,34,34,34,34,34,34,34,34,34,34,34,34,34,34,34,34,34,34,34,34,34,34,34,34,34,34,34,34,34,34,34,34,34,34,34,34,57712,35678,22995,45505,10226,22475,
38,34,34,34,34,34,34,34,34,34,34,34,34,34,34,34,34,34,34,34,34,34,34,34,34,34,34,34,34,34,34,34,34,34,34,34,34,34,34,34,34,34,34,34,34,34,34,34,34,34,34,34,34,34,34,34,34,34,34,34,34,34,34,34,34,34,34,34,34,34,34,34,34,29815,33002,49845,34,22526,34,31466,47277,
39,34,34,34,34,34,34,34,34,34,34,34,34,34,34,34,34,34,34,34,34,34,34,34,34,34,34,34,34,34,34,34,34,34,34,34,34,34,34,34,34,34,34,34,34,34,34,34,34,34,34,34,34,34,34,34,34,34,34,34,34,34,34,34,34,34,34,34,34,34,34,34,34,34,34,2129,15148,45667,23714,34,34,
40,34,34,34,34,34,34,34,34,34,34,34,34,34,34,7669,34,34,34,34,34,34,34,34,34,34,34,34,34,34,34,34,34,34,34,34,34,34,34,34,34,34,34,34,34,34,34,34,34,34,34,34,34,34,34,34,34,34,34,34,34,34,7669,34,34,34,34,34,34,34,34,34,34,20493,47794,50286,34,46531,48284,44100,56731,
41,34,34,34,34,34,34,34,34,34,34,34,34,34,34,34,34,34,34,34,34,34,34,34,34,34,34,34,34,34,34,34,34,34,34,34,34,34,34,34,34,34,34,34,34,34,34,34,34,34,34,34,34,34,34,34,34,34,34,34,34,34,34,34,34,34,34,34,34,34,34,34,34,52223,46194,43717,399,23041,1208,34,13614,
42,34,34,34,34,34,34,34,34,34,34,34,34,34,34,34,34,34,34,34,34,34,34,34,34,34,34,34,34,34,34,34,34,34,34,34,34,34,34,34,34,34,34,34,34,34,34,34,34,34,34,34,34,34,34,34,34,34,34,34,34,34,34,34,34,34,34,34,34,34,34,34,34,518,46567,34,47132,34,14522,6200,34,
43,34,34,34,34,34,34,34,34,34,34,34,34,34,34,34,34,34,18402,34,34,34,34,34,34,34,34,34,34,34,34,34,34,34,34,34,34,34,34,34,34,34,34,34,34,34,34,34,34,34,34,34,34,34,34,34,34,34,34,34,34,34,34,34,34,34,34,34,34,34,34,34,34,18919,34,41094,13610,7653,20466,41046,11524,
44,34,34,34,34,34,34,34,34,34,34,34,34,34,34,34,34,34,34,34,34,34,34,34,34,34,34,34,34,34,34,34,34,34,34,34,34,34,34,34,34,34,34,34,34,34,34,34,34,34,34,34,34,34,34,34,34,34,34,34,34,34,34,34,34,34,34,34,34,34,34,34,34,13188,42570,3168,47373,17219,12429,45564,34,
45,34,34,34,34,34,34,34,34,34,34,34,34,34,34,34,34,34,34,34,34,34,34,34,34,34,34,34,34,34,34,34,34,34,34,34,34,34,34,34,34,34,34,34,34,34,34,34,34,34,34,34,34,34,34,34,34,14937,34,34,34,34,34,34,34,34,34,34,34,34,34,34,34,9185,48138,35787,19058,19499,34,34,48707,
46,34,34,34,34,34,34,34,34,34,34,34,34,34,34,34,34,34,34,34,34,34,34,34,34,34,34,34,34,34,34,34,34,34,34,34,34,34,34,34,34,34,34,34,34,34,34,34,34,34,34,34,34,34,34,34,34,34,34,34,34,34,34,34,14681,34,34,34,34,34,34,34,34,34,59949,38962,34,41925,34,47719,56920,
47,34,34,34,34,34,34,34,34,34,34,34,34,34,34,34,34,34,34,34,34,34,34,34,34,9461,34,34,34,34,34,34,34,34,34,34,34,34,34,34,34,34,34,34,34,34,34,34,34,34,34,34,34,34,34,34,2813,34,34,34,34,34,34,34,9461,34,34,34,9461,15043,34,34,34,34,9895,57847,34,34,24332,44548,50212,
48,34,34,34,34,34,34,34,34,34,34,34,34,34,34,34,34,34,34,34,34,34,34,34,34,34,34,34,34,34,34,34,34,34,34,34,34,34,34,34,34,34,34,34,34,34,34,34,34,34,34,34,34,34,34,34,34,34,34,34,34,34,34,34,34,34,34,34,34,34,34,34,34,34,20756,45288,49204,34,26777,35451,48509,
49,34,34,34,34,34,34,34,34,34,34,34,34,34,34,34,34,34,34,34,34,34,34,34,34,34,34,34,34,34,34,12029,34,34,34,34,34,34,34,34,34,34,34,34,34,34,34,7072,34,34,34,34,34,34,34,34,34,34,34,34,34,34,34,34,34,34,34,34,34,34,34,34,34,16670,34,46950,23280,34,34,45853,2105,
50,34,34,34,34,34,34,34,34,34,34,34,34,34,34,34,34,34,34,34,34,34,34,34,34,34,34,34,34,34,34,34,34,34,34,34,34,34,34,34,34,34,34,34,34,34,34,34,34,34,34,34,34,34,34,34,34,34,34,34,34,34,34,34,34,7072,34,34,34,34,34,34,34,13519,34,48609,20490,34,34,1306,228,
51,34,34,34,34,34,34,34,34,34,34,34,34,34,34,34,34,34,34,34,34,34,34,34,34,34,34,34,34,34,34,34,34,34,34,34,34,34,34,34,34,34,34,34,34,34,34,34,34,34,34,34,34,34,34,34,34,34,34,34,34,34,34,34,34,34,34,34,34,34,34,34,34,34,34,49929,32569,34,13971,34,1751,
52,34,34,34,34,34,34,34,34,34,34,34,34,34,34,34,34,34,34,34,34,34,34,34,34,558,34,34,34,34,34,34,34,34,34,34,34,34,34,34,34,10674,34,34,34,34,34,34,34,34,34,34,34,34,34,34,34,34,34,558,34,34,34,34,34,34,34,34,34,34,34,34,34,34,37697,34,34,44240,52690,34,53869,
53,34,34,34,34,34,34,34,34,34,3188,34,34,34,34,34,34,34,34,34,34,34,34,9345,34,34,34,34,34,34,34,34,34,34,34,34,34,34,34,34,3188,34,34,34,4789,34,34,34,34,34,34,34,34,34,34,34,34,34,34,34,34,34,34,34,34,34,34,34,34,34,34,34,34,52760,34,34,48446,34,21437,4513,13561,
54,34,34,34,34,34,34,34,34,34,34,34,27840,34,34,34,34,34,34,34,34,34,34,34,34,34,34,34,34,34,34,34,34,34,34,34,34,34,34,34,34,34,34,34,34,34,34,34,34,34,34,34,34,34,34,34,34,34,34,34,34,34,34,34,34,34,34,34,34,34,34,34,34,21758,34,34,36036,34,34,34,21477,
55,34,34,34,34,34,34,34,34,34,34,34,34,34,34,34,34,34,34,34,34,34,34,34,34,34,34,34,34,34,34,34,34,34,34,34,34,34,34,34,34,34,34,34,34,34,34,34,34,34,34,34,34,34,34,34,34,34,34,34,34,34,34,34,34,34,34,34,34,34,34,34,34,50028,34,8712,41587,34,29461,34,47309,
56,34,34,34,34,34,34,34,34,34,34,34,34,34,34,34,34,34,34,34,34,34,34,34,34,34,34,34,34,34,34,34,34,34,34,34,22707,34,34,34,34,34,16862,34,34,34,34,34,34,34,34,34,34,34,34,34,34,34,34,34,34,34,34,1330,34,34,34,34,34,34,34,34,34,34,45471,59924,17018,34,36060,15531,34,
57,34,34,34,34,34,34,34,34,34,34,34,34,34,34,34,34,34,34,34,34,34,34,34,34,34,34,34,34,34,34,34,34,34,34,34,34,34,34,34,34,34,34,34,34,34,34,34,34,34,34,34,34,34,34,34,34,34,34,34,34,34,34,34,34,34,34,34,34,34,34,34,34,45815,34,38445,54605,47489,34,42853,41278,
58,34,34,34,34,34,34,34,34,34,34,34,34,34,34,34,34,34,34,34,34,34,34,34,34,34,34,34,34,34,34,34,34,34,34,34,34,34,34,34,34,34,34,34,34,34,34,34,34,34,34,34,34,34,34,34,34,34,34,34,34,34,34,34,34,34,34,34,34,34,34,34,34,48523,34,31896,5021,31042,7059,34915,23583,
59,34,34,34,34,34,34,34,34,34,34,34,34,34,34,34,34,34,34,34,34,34,34,34,34,34,34,34,34,34,34,34,34,34,34,34,34,34,34,34,34,34,34,34,34,34,34,34,34,34,34,34,34,34,34,34,34,34,34,34,34,34,34,34,34,34,34,34,34,34,34,34,34,34,34,33181,57226,40784,34,34,34,
60,34,34,34,34,34,34,34,34,34,34,34,34,34,34,34,34,34,34,34,34,34,34,34,34,34,34,34,34,34,34,34,34,34,34,34,34,34,34,34,34,34,34,34,34,34,34,18253,34,34,34,34,34,34,34,18253,34,18253,34,34,34,34,34,34,34,34,34,34,34,34,34,34,34,21826,34,55445,15993,1547,40790,4958,34,
61,34,34,34,34,34,34,34,34,34,34,34,34,34,34,34,34,34,34,34,34,34,34,34,34,34,34,34,34,34,34,34,34,34,34,34,34,34,34,34,34,34,34,34,34,34,34,34,34,34,34,34,34,34,34,34,34,34,34,34,34,34,34,34,34,34,34,34,34,34,34,34,34,34,14362,56002,31904,20760,28048,18637,1634,
62,34,34,34,34,34,34,34,34,34,34,34,34,34,34,34,34,34,34,34,34,34,34,34,34,34,34,34,1182,34,34,34,34,34,34,34,34,34,34,34,34,34,34,34,34,34,1182,34,34,34,34,34,34,34,34,34,34,34,34,34,34,34,34,34,34,34,34,34,34,34,34,34,34,34,39133,53202,29750,39150,25863,50704,19124,
63,34,34,34,34,34,34,34,34,34,34,34,34,34,34,34,34,34,34,34,34,34,34,34,34,34,34,34,34,34,34,34,34,34,34,34,34,34,34,34,34,34,34,34,34,34,34,34,34,34,34,34,34,34,34,34,34,34,34,34,34,34,34,34,34,34,34,34,34,34,34,34,34,26871,16637,10167,8196,35916,46645,4216,42062,
64,34,34,34,34,34,34,34,34,34,34,34,34,34,34,34,34,34,34,34,34,34,34,34,34,34,34,34,34,34,34,34,34,34,34,34,34,34,34,34,34,34,34,34,34,34,34,34,34,34,34,34,34,34,34,34,34,34,34,34,34,34,34,34,34,34,34,34,34,34,34,34,34,34,43824,21341,28408,34,34,47127,27148,
65,34,34,34,34,34,34,34,34,34,34,34,34,34,34,34,34,34,34,34,34,34,34,34,34,34,34,34,34,34,34,34,34,34,34,34,34,34,34,34,34,34,34,34,34,34,34,34,34,34,34,34,34,34,34,34,34,34,34,34,34,34,34,34,34,34,34,34,34,34,34,34,34,17662,19545,45933,34,34,34789,34,7564,
66,34,34,34,34,34,34,34,34,34,2491,34,34,34,34,34,34,34,34,34,34,34,34,34,34,34,34,34,34,34,34,34,34,34,34,34,34,34,34,34,34,34,34,34,34,34,34,34,34,34,34,34,34,34,34,34,34,34,34,34,34,34,34,34,34,34,34,34,34,34,34,34,34,40851,36018,49651,35268,46277,34,50306,45420,
67,34,34,34,34,34,34,34,34,34,34,34,34,34,34,34,34,34,34,34,34,34,34,34,34,34,34,34,34,34,34,34,34,34,34,34,34,34,34,34,34,34,34,34,34,34,34,34,34,34,34,34,34,34,34,17743,34,34,34,34,7980,34,34,34,34,34,34,34,34,34,34,34,34,34,45795,13158,30773,51031,32645,9047,34,
68,34,34,34,34,34,34,34,34,34,34,34,34,34,34,34,34,34,34,34,34,34,34,34,34,34,34,34,34,34,34,34,34,34,34,34,34,34,34,34,34,34,34,34,34,34,34,34,34,34,34,34,34,34,34,34,34,34,34,34,34,34,34,34,34,34,34,34,34,34,34,34,34,34,28022,36193,43451,34,42964,41721,31846,
69,34,34,34,34,34,34,34,34,34,34,34,34,34,34,34,34,34,34,34,34,34,34,34,34,34,34,34,34,34,34,34,34,34,34,34,34,34,34,34,34,34,34,34,34,34,34,34,34,34,34,34,34,34,34,34,34,34,34,34,34,34,34,34,34,34,34,34,34,34,34,34,34,16696,34,34,40137,42677,46168,37128,38451,
70,34,34,34,34,34,34,34,34,34,34,34,34,34,34,34,34,34,34,34,34,15232,34,34,34,34,34,34,34,34,34,34,34,34,34,34,34,34,34,15232,15232,34,34,34,34,34,34,34,34,34,34,34,34,34,34,34,34,34,34,34,34,34,34,34,34,34,34,34,34,34,34,34,34,2449,27730,8825,34,34,13297,34,7694,
71,34,34,34,34,34,34,34,34,34,34,34,34,34,34,34,34,34,34,34,34,34,34,34,34,34,34,34,34,34,34,34,34,34,34,34,34,34,34,34,34,34,34,34,34,34,34,34,34,34,34,34,34,34,34,34,34,34,34,34,34,34,34,34,34,34,34,34,34,34,34,34,34,24487,34,41744,11009,34,48784,44928,13036,
72,34,34,34,34,34,34,34,34,34,34,34,34,34,34,34,34,34,34,34,34,34,34,34,34,34,34,34,34,9579,34,34,34,34,34,34,34,34,34,34,523,34,34,34,34,34,34,34,523,34,34,34,34,34,34,34,34,34,34,34,34,34,34,34,34,34,34,9579,34,34,34,34,34,14592,34980,34,5904,54833,45559,34,34,
73,34,34,34,34,34,34,34,34,34,34,34,34,34,34,34,34,34,34,34,34,34,34,34,34,34,34,34,34,34,34,34,34,34,34,34,34,34,34,34,34,34,34,34,34,34,34,34,34,34,34,34,34,34,34,34,34,34,34,34,34,34,34,34,34,34,961,34,34,34,34,34,34,34,52266,50608,44144,25325,2411,34,34,
74,34,34,34,34,34,34,34,34,34,34,34,34,34,34,34,34,34,34,34,34,34,34,34,34,34,34,34,34,34,34,34,34,34,34,34,34,34,34,34,34,34,34,34,34,34,34,11096,34,34,34,34,34,34,34,34,34,34,34,34,34,34,34,34,34,34,34,34,34,34,34,34,34,13346,39569,26478,56362,16438,35118,15039,34,
75,34,34,34,34,34,34,34,34,34,34,34,34,34,34,12011,34,34,34,34,34,34,34,34,34,34,34,34,34,34,34,34,34,34,34,34,34,34,34,34,34,34,34,34,34,34,34,34,34,34,34,34,34,34,34,34,34,34,34,34,34,34,34,34,34,34,34,34,34,34,34,34,34,34,51938,13049,34,34,34,3246,34,
76,34,34,34,34,34,34,34,34,34,34,34,34,34,34,34,34,34,34,34,34,34,34,34,34,34,34,34,34,34,34,34,34,34,34,34,34,34,34,34,34,34,34,34,34,34,34,34,34,34,34,34,34,34,34,34,34,34,34,34,34,34,34,34,34,34,34,34,34,34,34,34,34,18636,51776,34,34,2975,58330,40447,34,
77,34,34,34,34,34,34,34,34,34,34,34,34,34,34,34,34,34,34,34,34,34,34,34,34,34,34,34,34,34,8667,34,34,34,34,34,34,34,34,34,34,34,34,34,34,34,34,34,34,34,34,34,34,34,34,34,34,34,34,34,34,34,34,34,34,34,34,34,34,34,34,34,34,24044,56842,34,45847,56111,19282,48093,22458,
78,34,34,34,34,34,34,34,34,34,34,34,34,34,34,34,4846,34,34,34,34,4846,34,34,34,34,34,34,34,34,34,34,34,34,34,34,34,34,34,34,34,34,34,34,34,34,34,34,34,34,34,34,34,34,34,34,34,34,34,34,34,34,34,34,34,34,34,34,34,34,34,34,34,34,43418,34,13379,38588,36285,36461,29734,
79,34,34,34,34,34,34,34,34,34,34,34,34,34,34,34,34,34,34,34,34,34,34,34,34,34,34,34,34,34,34,34,34,34,34,34,34,34,34,34,34,34,34,34,34,34,34,34,34,34,34,34,34,34,34,34,34,34,34,34,34,34,34,34,34,34,34,34,34,34,34,34,34,41012,11850,34,43922,35758,34,41110,1979,
80,34,34,34,34,34,34,34,34,34,34,34,34,34,34,34,34,34,34,34,34,34,34,34,34,34,34,34,34,34,34,34,34,34,34,34,34,34,34,34,34,34,34,34,2146,34,34,34,34,34,34,34,34,34,34,2146,34,34,34,34,2146,34,34,34,34,34,34,34,34,34,34,34,34,16464,34,34,4828,50326,34,13093,34,
81,34,34,34,34,34,34,34,34,34,34,34,34,34,34,34,34,34,34,34,34,34,34,34,34,34,34,34,34,34,34,34,34,34,34,34,34,11903,34,34,34,34,34,34,34,34,34,34,34,34,34,34,34,34,34,34,34,34,34,34,34,34,34,34,34,34,34,34,34,34,34,34,34,29780,32897,11903,37243,34,34,52836,872,
82,34,34,34,34,34,34,34,34,34,34,34,34,34,34,34,34,34,34,34,34,34,34,34,34,34,34,34,34,34,34,34,34,34,34,34,34,34,7465,34,34,34,34,34,34,34,34,34,34,34,34,34,34,34,34,34,34,34,34,34,34,34,34,34,34,34,34,34,34,34,34,34,34,59309,12188,34,34,34,28063,38330,21341,
83,34,34,34,34,34,34,34,34,34,34,34,34,34,34,34,34,34,34,34,34,34,34,34,34,34,34,34,34,34,34,34,34,34,34,34,34,34,34,34,34,34,34,34,34,34,34,34,34,34,34,34,34,34,34,34,34,34,34,34,34,34,34,34,34,34,34,34,34,34,34,34,34,15290,26739,15763,11993,34,34,32776,34,
84,34,34,34,34,34,34,34,34,34,34,34,34,34,34,34,34,34,34,34,34,34,34,34,7858,34,34,34,34,34,34,34,34,34,34,34,34,34,11120,34,34,34,34,34,34,34,34,34,34,34,34,34,34,34,34,34,34,34,34,34,34,34,34,34,34,34,34,34,34,34,34,34,34,53964,34,34,55005,21879,34,34,42808,
85,34,34,34,34,34,34,34,34,34,34,34,34,34,34,34,34,34,34,34,34,34,34,34,34,34,34,34,34,34,34,34,34,34,34,34,34,34,34,34,34,34,34,34,34,34,34,34,34,34,34,34,34,34,34,34,34,34,34,34,34,34,34,34,34,34,34,34,34,34,34,34,34,34,34,34,35634,40539,13662,41072,48784,
86,34,34,34,34,34,34,34,34,34,34,34,34,34,34,34,34,34,34,34,34,34,34,34,34,34,34,34,34,34,34,34,34,34,34,34,34,34,34,34,34,34,34,34,17744,34,34,34,34,34,34,34,34,34,34,34,34,34,34,34,34,34,34,34,34,34,17744,34,34,34,34,34,34,34,48206,46931,34,27262,58462,39264,48529,
87,34,34,34,34,34,34,34,34,34,34,34,34,34,34,34,34,34,34,34,34,34,34,34,34,34,34,34,34,34,34,34,34,34,34,34,34,34,34,34,34,34,34,34,34,34,34,34,34,34,34,34,34,34,34,34,34,34,34,34,34,34,34,34,34,34,34,34,34,34,34,34,34,11970,34,310,34,34,43440,42810,34,
88,34,34,34,34,34,34,34,34,34,34,34,34,34,34,34,34,34,34,21137,34,34,34,34,34,34,34,17517,34,34,34,34,34,34,34,34,34,34,34,34,34,34,34,34,34,34,21137,34,34,34,34,34,34,34,34,34,34,34,34,34,34,34,34,34,34,34,34,34,34,34,34,34,34,53648,11436,18983,42628,26879,11673,7704,34,
89,34,34,34,34,34,34,34,34,34,34,34,34,34,34,34,34,34,34,34,34,34,34,34,34,34,34,34,34,34,34,34,34,34,34,34,34,34,34,34,34,34,34,34,34,34,34,34,34,34,34,34,34,34,34,34,34,34,34,34,34,34,34,34,34,34,34,34,34,34,34,34,34,46744,34,4493,4656,34,34,47132,40122,
90,34,34,34,34,34,34,34,34,34,34,34,34,34,34,34,34,34,34,34,34,34,34,34,34,34,34,34,34,34,34,34,34,34,34,34,34,34,34,34,34,34,34,34,34,34,34,34,34,34,34,34,34,34,34,34,34,34,34,34,34,34,34,34,34,34,34,34,34,34,34,34,34,24042,48512,8083,35266,57422,34,57913,46343,
91,34,34,34,34,34,34,34,34,34,34,34,34,34,34,34,34,34,2608,34,34,34,34,2608,34,34,34,34,34,34,17414,17414,34,34,34,34,34,34,34,34,34,34,34,34,34,34,34,34,34,34,34,34,34,34,34,34,34,34,34,1165,34,34,34,34,34,34,34,34,34,34,2608,34,34,57567,34,21957,59449,34,34,47878,5666,
92,34,34,34,34,34,34,34,34,34,34,34,21917,34,34,34,34,34,34,34,34,34,34,34,34,34,34,34,34,34,34,34,34,34,34,34,34,34,34,34,34,34,34,34,34,34,34,34,34,34,20837,34,34,34,34,34,34,34,34,34,34,10690,34,34,34,20837,34,34,34,34,34,34,34,39692,34,34,8024,45991,39198,33168,14212,
93,34,34,34,34,34,34,34,34,34,34,34,34,34,34,34,34,34,34,34,34,34,34,34,34,34,34,34,34,34,34,34,34,34,34,34,34,34,34,34,34,34,34,34,34,34,34,34,34,34,34,34,34,34,34,34,34,34,34,34,34,34,34,34,34,34,34,34,34,34,34,34,34,34,26352,25039,34,11130,34,32512,34,
94,34,34,34,34,34,34,34,34,34,34,34,34,34,34,34,34,34,34,34,34,34,34,34,34,34,10789,34,34,34,34,34,34,34,34,34,34,34,34,34,34,34,34,34,34,34,34,34,34,34,34,34,34,34,34,34,34,34,34,34,34,34,34,34,34,34,34,34,34,34,34,34,34,56784,634,34,15151,34,46218,20643,45774,
95,34,34,34,34,34,34,34,34,34,34,34,34,34,185,34,34,34,34,34,34,34,185,34,34,34,34,34,34,34,34,34,34,34,34,34,34,34,34,34,34,34,34,34,34,34,34,34,34,34,34,34,34,34,34,34,34,34,34,34,34,185,34,34,34,34,34,34,34,34,34,34,34,34,44489,185,34,8119,44618,47306,10991,
96,34,34,34,34,34,34,34,34,34,34,34,34,34,34,34,34,34,34,34,34,34,34,34,34,34,34,34,34,34,34,34,34,34,34,34,34,34,34,34,34,34,34,34,34,34,34,34,34,34,34,34,34,34,34,34,34,34,34,34,34,34,34,34,34,34,34,34,34,34,34,34,34,31125,30610,40329,57506,48871,34,34,16641,
97,34,34,34,34,34,34,34,34,34,34,34,34,34,34,34,34,34,34,34,34,34,34,34,34,34,34,34,34,34,34,34,34,34,34,34,34,34,10370,34,34,34,34,34,34,34,34,34,34,34,34,34,34,34,34,34,34,34,34,34,34,34,34,34,34,34,34,34,34,34,34,34,34,48359,34,24614,53481,13950,46916,18003,46431,
98,34,34,34,34,34,34,34,34,34,34,34,34,34,34,34,34,34,34,34,34,34,34,34,34,34,34,34,34,34,34,34,34,34,34,34,34,34,34,34,34,34,34,34,34,34,34,34,34,34,34,34,34,34,34,34,34,34,34,34,17109,34,34,34,34,34,34,34,34,34,34,34,34,30567,28415,50505,34,53272,47448,58330,34,
99,34,34,34,34,34,34,34,34,34,34,34,34,34,34,34,34,34,34,34,34,34,34,34,34,34,34,34,34,34,34,34,34,34,34,34,34,34,34,34,34,34,34,34,34,34,34,34,34,34,34,34,34,34,34,34,34,34,34,34,34,34,34,34,34,34,34,34,34,34,34,34,34,34,39173,48640,40770,18383,36160,44559,3981,
100,34,34,34,34,34,34,34,34,34,34,34,34,34,34,34,34,34,34,34,34,34,34,34,34,34,34,34,34,34,34,34,34,34,34,34,34,34,34,34,34,34,34,34,34,34,34,34,34,34,34,34,34,34,34,34,34,34,34,34,34,34,34,34,34,34,34,34,34,34,34,34,34,34,34,34,18023,43257,32662,34554,47214,
